************************************************************************
file with basedata            : 
initial value random generator: 
************************************************************************
projects                      :  1
jobs (incl. supersource/sink ):  102
horizon                       :  500
RESOURCES
  - renewable                 :  4   R
  - nonrenewable              :  0   N
  - doubly constrained        :  0   D
************************************************************************
PROJECT INFORMATION:
pronr.  #jobs rel.date duedate tardcost  MPM-Time
	1     100      0       10        1       10
************************************************************************
PRECEDENCE RELATIONS:
jobnr.    #modes  #successors   successors
   1        1         21           2   3   4   5   6   7   8   9  10  11  12  13  14  15  16  17  18  19  20  21  22 
   2        1          2          23  24 
   3        1          1          25 
   4        1          1          26 
   5        1          1          27 
   6        1          1          28 
   7        1          1          29 
   8        1          1          30 
   9        1          1          31 
  10        1          1          32 
  11        1          1          33 
  12        1          1          34 
  13        1          1          35 
  14        1          1          36 
  15        1          1          37 
  16        1          1          38 
  17        1          6          39  40  41  42  43  44 
  18        1          4          46  47  48  49 
  19        1          7          53  54  55  56  57  58  59 
  20        1         12          65  66  67  68  69  70  71  72  73  74  75  76 
  21        1          6          87  88  89  90  91  92 
  22        1          3          97  98  99 
  23        1          6          39  40  41  42  43  44 
  24        1          1         102 
  25        1          6          39  40  41  42  43  44 
  26        1          4          46  47  48  49 
  27        1          4          46  47  48  49 
  28        1          4          46  47  48  49 
  29        1          4          46  47  48  49 
  30        1         12          65  66  67  68  69  70  71  72  73  74  75  76 
  31        1         12          65  66  67  68  69  70  71  72  73  74  75  76 
  32        1         12          65  66  67  68  69  70  71  72  73  74  75  76 
  33        1         12          65  66  67  68  69  70  71  72  73  74  75  76 
  34        1         12          65  66  67  68  69  70  71  72  73  74  75  76 
  35        1          3          97  98  99 
  36        1          6          87  88  89  90  91  92 
  37        1          6          87  88  89  90  91  92 
  38        1          6          87  88  89  90  91  92 
  39        1          1          45 
  40        1          7          53  54  55  56  57  58  59 
  41        1         12          65  66  67  68  69  70  71  72  73  74  75  76 
  42        1          6          87  88  89  90  91  92 
  43        1          3          97  98  99 
  44        1          1         102 
  45        1          4          46  47  48  49 
  46        1          1          50 
  47        1          1          51 
  48        1          1          52 
  49        1          1         102 
  50        1          7          53  54  55  56  57  58  59 
  51        1          7          53  54  55  56  57  58  59 
  52        1         12          65  66  67  68  69  70  71  72  73  74  75  76 
  53        1          1          60 
  54        1          1          61 
  55        1          1          62 
  56        1          1          63 
  57        1          1          64 
  58        1         12          65  66  67  68  69  70  71  72  73  74  75  76 
  59        1          1         102 
  60        1         12          65  66  67  68  69  70  71  72  73  74  75  76 
  61        1         12          65  66  67  68  69  70  71  72  73  74  75  76 
  62        1         12          65  66  67  68  69  70  71  72  73  74  75  76 
  63        1         12          65  66  67  68  69  70  71  72  73  74  75  76 
  64        1         12          65  66  67  68  69  70  71  72  73  74  75  76 
  65        1          1          77 
  66        1          1          78 
  67        1          1          79 
  68        1          1          80 
  69        1          1          81 
  70        1          1          82 
  71        1          1          83 
  72        1          1          84 
  73        1          1          85 
  74        1          1          86 
  75        1          3          97  98  99 
  76        1          1         102 
  77        1          6          87  88  89  90  91  92 
  78        1          3          97  98  99 
  79        1          6          87  88  89  90  91  92 
  80        1          3          97  98  99 
  81        1          3          97  98  99 
  82        1          3          97  98  99 
  83        1          3          97  98  99 
  84        1          3          97  98  99 
  85        1          3          97  98  99 
  86        1          3          97  98  99 
  87        1          1          93 
  88        1          1          94 
  89        1          1          95 
  90        1          1          96 
  91        1          3          97  98  99 
  92        1          1         102 
  93        1          3          97  98  99 
  94        1          3          97  98  99 
  95        1          1         102 
  96        1          1         102 
  97        1          1         100 
  98        1          1         101 
  99        1          1         102 
 100        1          1         102 
 101        1          1         102 
 102        1          0         
************************************************************************
REQUESTS/DURATIONS:
jobnr. mode duration  R 1  R 2  R 3  R 4
------------------------------------------------------------------------
  1      1     0       0    0    0    0
  2      1     4       9    4    0    0
  3      1     7       4    0    0    4
  4      1     4       0    0    2    2
  5      1    10       7    0    5    9
  6      1     7       0   10    0    0
  7      1     7      10    4    0    2
  8      1     6       0    5    4   10
  9      1     9       0    0    8    0
 10      1     8       0    0    0    0
 11      1     6      10    3    0    0
 12      1     2       0    0    0    4
 13      1     6       0    8    7    1
 14      1     3       0    5    0    0
 15      1     8       8    0   10    4
 16      1     6      10    1    0    8
 17      1     7       7    6    1    0
 18      1     8       2    4    7    0
 19      1     1       0    3    4    0
 20      1    10       8    9    3    0
 21      1     3       7    7   10    0
 22      1     6       3    8    0    0
 23      1     1       0    1    5    8
 24      1     1       0    0    5    0
 25      1     5       7    0    0   10
 26      1     7       0   10    0    0
 27      1     5       0    0    0    6
 28      1     6       4    0    9    8
 29      1     7      10    8    7    7
 30      1     6       0    0    0    6
 31      1    10       2    0    0    0
 32      1     4       5    1    0    0
 33      1     3       3   10    3    0
 34      1     9       7    0    0    6
 35      1     7       0    1    9    5
 36      1     6       0    0    0    5
 37      1     9       1    0    0    2
 38      1     6       4    2    5    0
 39      1     2       9    9    2    4
 40      1     4       7    0    9    1
 41      1     8       9    0    2    6
 42      1     4       0    6    0    0
 43      1     7       0    0    0    4
 44      1     3       8    3    8    6
 45      1     6       0    0    0    0
 46      1     8       6    0    0    0
 47      1     1       4    9    0    0
 48      1     3       0    0   10    0
 49      1     9       8    0    0    2
 50      1     9       1    0   10   10
 51      1     7       0    7    0    0
 52      1    10       0    8    9    0
 53      1     6       0    5    0    4
 54      1     7       6    5    0    4
 55      1     2       0    9    0    3
 56      1     4       4   10    0    0
 57      1     5       9    8    7    9
 58      1    10       4    0    0    6
 59      1     5       4    3   10    0
 60      1     9       0    5    0   10
 61      1     7       0    0    7    9
 62      1     3       7    8    0    7
 63      1     6       2    2    0    0
 64      1     1       0    1    0    8
 65      1     8       3    0    0    1
 66      1     3       0    4    5    0
 67      1     9       4    7    4    5
 68      1     9       0    0    4    0
 69      1     1       0    0    0    7
 70      1     3       0    0    0    9
 71      1     5       0    0    0    0
 72      1     6       0    5    0   10
 73      1     3       0    1    3    0
 74      1     8      10    0    2    9
 75      1     7       2    0    0    0
 76      1     3       8    0    5    6
 77      1     9       3    1    4    2
 78      1     3       0    0    4    0
 79      1     1       9    0   10    0
 80      1     9       0    0    0    0
 81      1     5       0    0    0    6
 82      1     3       6    7    0    0
 83      1     1       8    0    3    0
 84      1     4       0    2    2    0
 85      1     2       0    0    8    0
 86      1     1       0    8    2   10
 87      1     2       3    6    0    0
 88      1     6       0    7    3    9
 89      1     3       5    0    0    1
 90      1     3       7    0    0    9
 91      1     5      10    7    9    0
 92      1     7       2    0    0    7
 93      1    10       0    0    6    0
 94      1     3       8    0    0    9
 95      1    10       7    0    0    7
 96      1     5       0    0    9    0
 97      1    10       7    4    8    0
 98      1     7       2    6    7    0
 99      1     5       2   10    0    8
100      1     4       6    0    0    0
101      1     3       0    0    5    0
102      1     0       0    0    0    0
************************************************************************
RESOURCEAVAILABILITIES:
  R 1  R 2  R 3  R 4
   11   16   10   14
************************************************************************
